
  22   10
  10   10   10   10   10   10   10   10   10   10

   0   0   0   0   0   0   0   0   0   0   0   8 2 4 5 6 18 19 20 21 
   1  10  10  10  10  10  10  10  10  10  10   2 15 3 
   5  10  10  10  10  10  10  10  10  10  10   3 16 14 7 
   9  10  10  10  10  10  10  10  10  10  10   3 11 10 8 
   6  10  10  10  10  10  10  10  10  10  10   3 17 10 8 
   9  10  10  10  10  10  10  10  10  10  10   2 15 8 
   2  10  10  10  10  10  10  10  10  10  10   1 8 
   7  10  10  10  10  10  10  10  10  10  10   2 12 9 
   1  10  10  10  10  10  10  10  10  10  10   1 13 
   8  10  10  10  10  10  10  10  10  10  10   1 12 
   4  10  10  10  10  10  10  10  10  10  10   1 14 
   2  10  10  10  10  10  10  10  10  10  10   1 22
   4  10  10  10  10  10  10  10  10  10  10   1 22
   7  10  10  10  10  10  10  10  10  10  10   1 22
   5  10  10  10  10  10  10  10  10  10  10   1 22
   9  10  10  10  10  10  10  10  10  10  10   1 22
   1  10  10  10  10  10  10  10  10  10  10   1 22
   1  10  10  10  10  10  10  10  10  10  10   1 22
   8  10  10  10  10  10  10  10  10  10  10   1 22
   4  10  10  10  10  10  10  10  10  10  10   1 22
   3  10  10  10  10  10  10  10  10  10  10   1 22
   0   0   0   0   0   0   0   0   0   0   0   0 
